data;

set BUSES := a1 a2 a3;
set FRANJAS := s1 s2 s3;
set TALLERES := t1 t2;

param c : a1 a2 a3 :=
a1 10.0 5.0 2.0 
a2 4.0 8.0 6.0 
a3 3.0 7.0 1.0 
;

param o : t1 t2 :=
s1 1 1 
s2 1 0 
s3 0 1 
;

end;
